NAME : n60w180.001.411.tour
COMMENT : Length = 411
COMMENT : Found by LKH [Keld Helsgaun] Tue May  2 05:19:06 2017
TYPE : TOUR
DIMENSION : 61
TOUR_SECTION
1
20
13
52
9
42
56
5
59
6
24
19
23
46
45
10
22
4
30
25
57
8
55
18
27
36
60
21
34
50
48
54
47
11
58
3
7
39
43
33
14
51
32
53
41
49
2
17
28
31
44
12
37
29
35
38
16
26
15
61
40
-1
EOF
